num_staff = 10;
work_load = [100, 100, 100, 100, 100, 100, 100, 100, 100, 100];
num_days = 50;
unavailable = [
    {1, 12, 10, 20, 21},
    {1, 4, 11, 12, 20, 21},
    {3},
    {3},
    {2},
    {2},
    {2},
    {2},
    {2},
    {2}
];
fixed = [
    {},
    {},
    {1},
    {},
    {},
    {},
    {},
    {4},
    {},
    {}
];
weekend_offset = 2;
adj_days_str = 1;
wed_before_weekend_str = 1;

staffWork =   [1,   1,  3,    4,   5, 6];
desiredWork = [{3},{4},{5},{10},{11},{3}];
scWork =      [ 1 , 2, 3, 4, 5, 6, 7];

staffNotWork =   [2   , 4, 5, 6];
desiredNotWork = [{3}, {2}, {4}, {45}];
scNotWork =      [ 8,   9, 10, 11 ];


crCustomEdges = [| 2, 1 | 8, 9 | 3, 4 | 5, 6 |];

max_week_day_bt = 15;
max_weekend_bt = 4; % found by previous runs with the original model
